(set-logic QF_S)
(declare-fun var0 () Int)
(declare-fun var1 () Int)
(declare-fun var2 () String)
(declare-fun var3 () Int)
(declare-fun var4 () Int)
(declare-fun var5 () String)
(declare-fun var6 () String)
(declare-fun var7 () String)
(assert (<= var0 var1))
(assert (str.suffixof (str.substr var2 var3 var4) (str.replace var5 var6 var7)))
(assert (str.prefixof (str.replace var7 var5 var7) (str.substr var2 var3 169)))
(assert (> var1 var4))
(check-sat)